50
19310

80 492
364 780
516 228
813 257
138 94
907 311
244 826
505 98
185 742
231 324
767 209
570 696
434 666
525 335
664 658
574 6
760 761
487 549
160 83
794 738
533 17
309 44
801 125
467 886
592 651
37 877
471 519
884 733
999 293
551 136
396 175
629 350
262 894
89 328
971 961
446 831
474 459
539 985
564 986
214 511
375 558
415 758
846 360
132 515
226 254
186 793
823 550
417 588
102 960
134 574
